sat
(
(define-fun sym395 () String "")
(define-fun sym242 () String "")
(define-fun sym122 () String "ELEMENTARY")
(define-fun sym851 () String "")
(define-fun sym623 () String "")
(define-fun sym965 () String "/QUIT")
(define-fun sym737 () String "")
(define-fun sym509 () String "")
)
